p cnf 296 2296
138 163 208 0
114 120 211 214 0
98 146 154 0
158 162 175 0
79 160 227 0
74 112 118 119 0
104 108 134 234 239 0
66 126 136 0
128 166 171 0
59 61 169 0
53 151 0
50 143 156 261 0
45 177 0
87 168 181 0
127 132 140 0
125 183 185 0
129 165 187 188 0
121 150 0
174 190 192 0
89 92 153 0
81 83 84 88 179 0
78 80 123 139 0
72 77 117 0
101 106 110 0
68 70 71 0
62 63 64 65 0
55 56 57 58 60 0
54 113 137 170 0
51 52 96 149 0
141 155 0
46 47 49 91 173 0
43 82 86 178 0
41 76 115 133 0
39 40 99 109 0
34 35 36 37 38 93 0
67 69 124 182 0
184 186 193 194 196 0
130 189 197 0
131 198 199 200 0
122 201 202 204 0
148 191 206 269 0
159 164 176 207 209 0
210 212 215 0
85 97 180 216 217 0
157 161 218 219 0
95 103 107 220 221 292 0
222 224 225 226 228 0
73 111 231 232 233 0
235 238 240 0
152 229 241 242 244 282 0
135 246 247 248 0
236 249 250 0
251 252 0
48 253 254 0
255 256 259 0
42 142 262 0
-120 -263 0
-79 -263 0
-74 -263 0
-79 -120 0
-74 -120 0
-74 -79 0
-87 -156 0
-125 -156 0
-156 -195 0
-87 -125 0
-87 -195 0
-125 -195 0
-187 -265 0
-187 -203 0
-187 -190 0
-203 -265 0
-190 -265 0
-190 -203 0
-149 -173 0
-149 -257 0
-41 -149 0
-173 -257 0
-41 -173 0
-41 -257 0
-222 -231 0
-222 -241 0
-222 -246 0
-231 -241 0
-231 -246 0
-241 -246 0
-48 -255 0
-48 -266 0
-48 -267 0
-255 -266 0
-255 -267 0
-266 -267 0
-156 -263 0
-187 -263 0
-149 -263 0
-156 -187 0
-149 -156 0
-149 -187 0
-87 -120 0
-120 -265 0
-120 -173 0
-87 -265 0
-87 -173 0
-173 -265 0
-203 -257 0
-203 -222 0
-48 -203 0
-222 -257 0
-48 -257 0
-48 -222 0
-41 -190 0
-190 -231 0
-190 -255 0
-41 -231 0
-41 -255 0
-231 -255 0
-79 -125 0
-79 -241 0
-79 -266 0
-125 -241 0
-125 -266 0
-241 -266 0
-74 -195 0
-74 -246 0
-74 -267 0
-195 -246 0
-195 -267 0
-246 -267 0
-127 -268 0
-77 -105 0
-60 -77 0
-60 -105 0
-49 -52 0
-52 -93 0
-49 -93 0
-184 -189 0
-184 -264 0
-122 -184 0
-189 -264 0
-122 -189 0
-122 -264 0
-75 -85 0
-85 -107 0
-73 -85 0
-75 -107 0
-73 -75 0
-73 -107 0
-52 -77 0
-77 -184 0
-77 -85 0
-52 -184 0
-52 -85 0
-85 -184 0
-49 -105 0
-105 -189 0
-75 -105 0
-49 -189 0
-49 -75 0
-75 -189 0
-127 -264 0
-107 -127 0
-107 -264 0
-122 -268 0
-73 -268 0
-73 -122 0
-60 -93 0
-114 -270 0
-98 -270 0
-158 -270 0
-90 -270 0
-102 -270 0
-118 -270 0
-98 -114 0
-114 -158 0
-90 -114 0
-102 -114 0
-114 -118 0
-98 -158 0
-90 -98 0
-98 -102 0
-98 -118 0
-90 -158 0
-102 -158 0
-118 -158 0
-90 -102 0
-90 -118 0
-102 -118 0
-126 -234 0
-234 -237 0
-171 -234 0
-169 -234 0
-144 -234 0
-234 -272 0
-126 -237 0
-126 -171 0
-126 -169 0
-126 -144 0
-126 -272 0
-171 -237 0
-169 -237 0
-144 -237 0
-237 -272 0
-169 -171 0
-144 -171 0
-171 -272 0
-144 -169 0
-169 -272 0
-144 -272 0
-143 -168 0
-132 -143 0
-143 -273 0
-143 -275 0
-143 -276 0
-143 -277 0
-132 -168 0
-168 -273 0
-168 -275 0
-168 -276 0
-168 -277 0
-132 -273 0
-132 -275 0
-132 -276 0
-132 -277 0
-273 -275 0
-273 -276 0
-273 -277 0
-275 -276 0
-275 -277 0
-276 -277 0
-65 -71 0
-71 -278 0
-71 -167 0
-71 -137 0
-65 -278 0
-65 -167 0
-65 -137 0
-167 -278 0
-137 -278 0
-137 -167 0
-178 -279 0
-76 -178 0
-40 -178 0
-178 -182 0
-76 -279 0
-40 -279 0
-182 -279 0
-40 -76 0
-76 -182 0
-40 -182 0
-130 -193 0
-193 -280 0
-193 -198 0
-193 -201 0
-130 -280 0
-130 -198 0
-130 -201 0
-198 -280 0
-201 -280 0
-198 -201 0
-180 -281 0
-180 -220 0
-180 -224 0
-180 -232 0
-220 -281 0
-224 -281 0
-232 -281 0
-220 -224 0
-220 -232 0
-224 -232 0
-234 -270 0
-143 -270 0
-193 -270 0
-180 -270 0
-143 -234 0
-193 -234 0
-180 -234 0
-143 -193 0
-143 -180 0
-180 -193 0
-114 -126 0
-114 -168 0
-114 -130 0
-114 -281 0
-126 -168 0
-126 -130 0
-126 -281 0
-130 -168 0
-168 -281 0
-130 -281 0
-98 -237 0
-98 -132 0
-71 -98 0
-98 -178 0
-98 -280 0
-98 -220 0
-132 -237 0
-71 -237 0
-178 -237 0
-237 -280 0
-220 -237 0
-71 -132 0
-132 -178 0
-132 -280 0
-132 -220 0
-71 -178 0
-71 -280 0
-71 -220 0
-178 -280 0
-178 -220 0
-220 -280 0
-158 -171 0
-158 -273 0
-65 -158 0
-158 -279 0
-158 -198 0
-158 -224 0
-171 -273 0
-65 -171 0
-171 -279 0
-171 -198 0
-171 -224 0
-65 -273 0
-273 -279 0
-198 -273 0
-224 -273 0
-65 -279 0
-65 -198 0
-65 -224 0
-198 -279 0
-224 -279 0
-198 -224 0
-90 -169 0
-90 -275 0
-90 -278 0
-76 -90 0
-90 -201 0
-90 -232 0
-169 -275 0
-169 -278 0
-76 -169 0
-169 -201 0
-169 -232 0
-275 -278 0
-76 -275 0
-201 -275 0
-232 -275 0
-76 -278 0
-201 -278 0
-232 -278 0
-76 -201 0
-76 -232 0
-201 -232 0
-102 -144 0
-102 -276 0
-102 -167 0
-40 -102 0
-144 -276 0
-144 -167 0
-40 -144 0
-167 -276 0
-40 -276 0
-40 -167 0
-118 -272 0
-118 -277 0
-118 -137 0
-118 -182 0
-272 -277 0
-137 -272 0
-182 -272 0
-137 -277 0
-182 -277 0
-137 -182 0
-108 -283 0
-64 -70 0
-70 -245 0
-58 -70 0
-64 -245 0
-58 -64 0
-58 -245 0
-43 -260 0
-39 -43 0
-38 -43 0
-39 -260 0
-38 -260 0
-38 -39 0
-186 -284 0
-186 -271 0
-186 -199 0
-186 -269 0
-159 -186 0
-271 -284 0
-199 -284 0
-269 -284 0
-159 -284 0
-199 -271 0
-269 -271 0
-159 -271 0
-199 -269 0
-159 -199 0
-159 -269 0
-97 -157 0
-97 -103 0
-97 -225 0
-97 -235 0
-97 -152 0
-103 -157 0
-157 -225 0
-157 -235 0
-152 -157 0
-103 -225 0
-103 -235 0
-103 -152 0
-225 -235 0
-152 -225 0
-152 -235 0
-172 -236 0
-145 -236 0
-236 -253 0
-142 -236 0
-236 -274 0
-145 -172 0
-172 -253 0
-142 -172 0
-172 -274 0
-145 -253 0
-142 -145 0
-145 -274 0
-142 -253 0
-253 -274 0
-142 -274 0
-108 -186 0
-97 -108 0
-108 -236 0
-97 -186 0
-186 -236 0
-97 -236 0
-283 -284 0
-157 -283 0
-172 -283 0
-157 -284 0
-172 -284 0
-157 -172 0
-43 -70 0
-70 -271 0
-70 -103 0
-70 -145 0
-43 -271 0
-43 -103 0
-43 -145 0
-103 -271 0
-145 -271 0
-103 -145 0
-64 -260 0
-64 -199 0
-64 -225 0
-64 -253 0
-199 -260 0
-225 -260 0
-253 -260 0
-199 -225 0
-199 -253 0
-225 -253 0
-39 -245 0
-245 -269 0
-235 -245 0
-142 -245 0
-39 -269 0
-39 -235 0
-39 -142 0
-235 -269 0
-142 -269 0
-142 -235 0
-38 -58 0
-58 -159 0
-58 -152 0
-58 -274 0
-38 -159 0
-38 -152 0
-38 -274 0
-152 -159 0
-159 -274 0
-152 -274 0
-285 -286 0
-285 -287 0
-88 -285 0
-80 -285 0
-286 -287 0
-88 -286 0
-80 -286 0
-88 -287 0
-80 -287 0
-80 -88 0
-110 -223 0
-63 -110 0
-57 -110 0
-54 -110 0
-63 -223 0
-57 -223 0
-54 -223 0
-57 -63 0
-54 -63 0
-54 -57 0
-47 -141 0
-141 -288 0
-37 -141 0
-69 -141 0
-47 -288 0
-37 -47 0
-47 -69 0
-37 -288 0
-69 -288 0
-37 -69 0
-218 -289 0
-218 -282 0
-218 -247 0
-282 -289 0
-247 -289 0
-247 -282 0
-251 -290 0
-116 -290 0
-100 -290 0
-116 -251 0
-100 -251 0
-100 -116 0
-110 -285 0
-141 -285 0
-218 -285 0
-285 -290 0
-110 -141 0
-110 -218 0
-110 -290 0
-141 -218 0
-141 -290 0
-218 -290 0
-223 -286 0
-47 -286 0
-286 -289 0
-251 -286 0
-47 -223 0
-223 -289 0
-223 -251 0
-47 -289 0
-47 -251 0
-251 -289 0
-63 -287 0
-287 -288 0
-63 -288 0
-57 -88 0
-37 -88 0
-88 -282 0
-88 -116 0
-37 -57 0
-57 -282 0
-57 -116 0
-37 -282 0
-37 -116 0
-116 -282 0
-54 -80 0
-69 -80 0
-80 -247 0
-80 -100 0
-54 -69 0
-54 -247 0
-54 -100 0
-69 -247 0
-69 -100 0
-100 -247 0
-163 -291 0
-211 -291 0
-154 -291 0
-162 -291 0
-213 -291 0
-291 -293 0
-227 -291 0
-119 -291 0
-163 -211 0
-154 -163 0
-162 -163 0
-163 -213 0
-163 -293 0
-163 -227 0
-119 -163 0
-154 -211 0
-162 -211 0
-211 -213 0
-211 -293 0
-211 -227 0
-119 -211 0
-154 -162 0
-154 -213 0
-154 -293 0
-154 -227 0
-119 -154 0
-162 -213 0
-162 -293 0
-162 -227 0
-119 -162 0
-213 -293 0
-213 -227 0
-119 -213 0
-227 -293 0
-119 -293 0
-119 -227 0
-104 -230 0
-104 -136 0
-104 -294 0
-104 -128 0
-61 -104 0
-104 -295 0
-53 -104 0
-104 -296 0
-136 -230 0
-230 -294 0
-128 -230 0
-61 -230 0
-230 -295 0
-53 -230 0
-230 -296 0
-136 -294 0
-128 -136 0
-61 -136 0
-136 -295 0
-53 -136 0
-136 -296 0
-128 -294 0
-61 -294 0
-294 -295 0
-53 -294 0
-294 -296 0
-61 -128 0
-128 -295 0
-53 -128 0
-128 -296 0
-61 -295 0
-53 -61 0
-61 -296 0
-53 -295 0
-295 -296 0
-53 -296 0
-50 -177 0
-50 -181 0
-50 -140 0
-33 -50 0
-32 -50 0
-31 -50 0
-50 -183 0
-30 -50 0
-177 -181 0
-140 -177 0
-33 -177 0
-32 -177 0
-31 -177 0
-177 -183 0
-30 -177 0
-140 -181 0
-33 -181 0
-32 -181 0
-31 -181 0
-181 -183 0
-30 -181 0
-33 -140 0
-32 -140 0
-31 -140 0
-140 -183 0
-30 -140 0
-32 -33 0
-31 -33 0
-33 -183 0
-30 -33 0
-31 -32 0
-32 -183 0
-30 -32 0
-31 -183 0
-30 -31 0
-30 -183 0
-29 -188 0
-28 -188 0
-121 -188 0
-27 -188 0
-188 -192 0
-92 -188 0
-84 -188 0
-78 -188 0
-28 -29 0
-29 -121 0
-27 -29 0
-29 -192 0
-29 -92 0
-29 -84 0
-29 -78 0
-28 -121 0
-27 -28 0
-28 -192 0
-28 -92 0
-28 -84 0
-28 -78 0
-27 -121 0
-121 -192 0
-92 -121 0
-84 -121 0
-78 -121 0
-27 -192 0
-27 -92 0
-27 -84 0
-27 -78 0
-92 -192 0
-84 -192 0
-78 -192 0
-84 -92 0
-78 -92 0
-78 -84 0
-72 -106 0
-26 -72 0
-68 -72 0
-62 -72 0
-25 -72 0
-24 -72 0
-56 -72 0
-72 -113 0
-26 -106 0
-68 -106 0
-62 -106 0
-25 -106 0
-24 -106 0
-56 -106 0
-106 -113 0
-26 -68 0
-26 -62 0
-25 -26 0
-24 -26 0
-26 -56 0
-26 -113 0
-62 -68 0
-25 -68 0
-24 -68 0
-56 -68 0
-68 -113 0
-25 -62 0
-24 -62 0
-56 -62 0
-62 -113 0
-24 -25 0
-25 -56 0
-25 -113 0
-24 -56 0
-24 -113 0
-56 -113 0
-96 -155 0
-46 -96 0
-86 -96 0
-23 -96 0
-96 -133 0
-96 -109 0
-36 -96 0
-96 -124 0
-46 -155 0
-86 -155 0
-23 -155 0
-133 -155 0
-109 -155 0
-36 -155 0
-124 -155 0
-46 -86 0
-23 -46 0
-46 -133 0
-46 -109 0
-36 -46 0
-46 -124 0
-23 -86 0
-86 -133 0
-86 -109 0
-36 -86 0
-86 -124 0
-23 -133 0
-23 -109 0
-23 -36 0
-23 -124 0
-109 -133 0
-36 -133 0
-124 -133 0
-36 -109 0
-109 -124 0
-36 -124 0
-22 -194 0
-194 -197 0
-21 -194 0
-194 -200 0
-194 -202 0
-191 -194 0
-194 -207 0
-194 -210 0
-22 -197 0
-21 -22 0
-22 -200 0
-22 -202 0
-22 -191 0
-22 -207 0
-22 -210 0
-21 -197 0
-197 -200 0
-197 -202 0
-191 -197 0
-197 -207 0
-197 -210 0
-21 -200 0
-21 -202 0
-21 -191 0
-21 -207 0
-21 -210 0
-200 -202 0
-191 -200 0
-200 -207 0
-200 -210 0
-191 -202 0
-202 -207 0
-202 -210 0
-191 -207 0
-191 -210 0
-207 -210 0
-216 -219 0
-20 -216 0
-216 -221 0
-216 -226 0
-216 -233 0
-216 -238 0
-216 -242 0
-216 -248 0
-20 -219 0
-219 -221 0
-219 -226 0
-219 -233 0
-219 -238 0
-219 -242 0
-219 -248 0
-20 -221 0
-20 -226 0
-20 -233 0
-20 -238 0
-20 -242 0
-20 -248 0
-221 -226 0
-221 -233 0
-221 -238 0
-221 -242 0
-221 -248 0
-226 -233 0
-226 -238 0
-226 -242 0
-226 -248 0
-233 -238 0
-233 -242 0
-233 -248 0
-238 -242 0
-238 -248 0
-242 -248 0
-19 -249 0
-249 -252 0
-18 -249 0
-249 -254 0
-249 -256 0
-42 -249 0
-17 -249 0
-16 -249 0
-19 -252 0
-18 -19 0
-19 -254 0
-19 -256 0
-19 -42 0
-17 -19 0
-16 -19 0
-18 -252 0
-252 -254 0
-252 -256 0
-42 -252 0
-17 -252 0
-16 -252 0
-18 -254 0
-18 -256 0
-18 -42 0
-17 -18 0
-16 -18 0
-254 -256 0
-42 -254 0
-17 -254 0
-16 -254 0
-42 -256 0
-17 -256 0
-16 -256 0
-17 -42 0
-16 -42 0
-16 -17 0
-104 -291 0
-50 -291 0
-188 -291 0
-72 -291 0
-96 -291 0
-194 -291 0
-216 -291 0
-249 -291 0
-50 -104 0
-104 -188 0
-72 -104 0
-96 -104 0
-104 -194 0
-104 -216 0
-104 -249 0
-50 -188 0
-50 -72 0
-50 -96 0
-50 -194 0
-50 -216 0
-50 -249 0
-72 -188 0
-96 -188 0
-188 -194 0
-188 -216 0
-188 -249 0
-72 -96 0
-72 -194 0
-72 -216 0
-72 -249 0
-96 -194 0
-96 -216 0
-96 -249 0
-194 -216 0
-194 -249 0
-216 -249 0
-163 -230 0
-163 -177 0
-29 -163 0
-106 -163 0
-155 -163 0
-22 -163 0
-163 -219 0
-19 -163 0
-177 -230 0
-29 -230 0
-106 -230 0
-155 -230 0
-22 -230 0
-219 -230 0
-19 -230 0
-29 -177 0
-106 -177 0
-155 -177 0
-22 -177 0
-177 -219 0
-19 -177 0
-29 -106 0
-29 -155 0
-22 -29 0
-29 -219 0
-19 -29 0
-106 -155 0
-22 -106 0
-106 -219 0
-19 -106 0
-22 -155 0
-155 -219 0
-19 -155 0
-22 -219 0
-19 -22 0
-19 -219 0
-136 -211 0
-181 -211 0
-28 -211 0
-26 -211 0
-46 -211 0
-197 -211 0
-20 -211 0
-211 -252 0
-136 -181 0
-28 -136 0
-26 -136 0
-46 -136 0
-136 -197 0
-20 -136 0
-136 -252 0
-28 -181 0
-26 -181 0
-46 -181 0
-181 -197 0
-20 -181 0
-181 -252 0
-26 -28 0
-28 -46 0
-28 -197 0
-20 -28 0
-28 -252 0
-26 -46 0
-26 -197 0
-20 -26 0
-26 -252 0
-46 -197 0
-20 -46 0
-46 -252 0
-20 -197 0
-197 -252 0
-20 -252 0
-154 -294 0
-140 -154 0
-121 -154 0
-68 -154 0
-86 -154 0
-21 -154 0
-154 -221 0
-18 -154 0
-140 -294 0
-121 -294 0
-68 -294 0
-86 -294 0
-21 -294 0
-221 -294 0
-18 -294 0
-121 -140 0
-68 -140 0
-86 -140 0
-21 -140 0
-140 -221 0
-18 -140 0
-68 -121 0
-86 -121 0
-21 -121 0
-121 -221 0
-18 -121 0
-68 -86 0
-21 -68 0
-68 -221 0
-18 -68 0
-21 -86 0
-86 -221 0
-18 -86 0
-21 -221 0
-18 -21 0
-18 -221 0
-128 -162 0
-33 -162 0
-27 -162 0
-62 -162 0
-23 -162 0
-162 -200 0
-162 -226 0
-162 -254 0
-33 -128 0
-27 -128 0
-62 -128 0
-23 -128 0
-128 -200 0
-128 -226 0
-128 -254 0
-27 -33 0
-33 -62 0
-23 -33 0
-33 -200 0
-33 -226 0
-33 -254 0
-27 -62 0
-23 -27 0
-27 -200 0
-27 -226 0
-27 -254 0
-23 -62 0
-62 -200 0
-62 -226 0
-62 -254 0
-23 -200 0
-23 -226 0
-23 -254 0
-200 -226 0
-200 -254 0
-226 -254 0
-61 -213 0
-32 -213 0
-192 -213 0
-25 -213 0
-133 -213 0
-202 -213 0
-213 -233 0
-213 -256 0
-32 -61 0
-61 -192 0
-25 -61 0
-61 -133 0
-61 -202 0
-61 -233 0
-61 -256 0
-32 -192 0
-25 -32 0
-32 -133 0
-32 -202 0
-32 -233 0
-32 -256 0
-25 -192 0
-133 -192 0
-192 -202 0
-192 -233 0
-192 -256 0
-25 -133 0
-25 -202 0
-25 -233 0
-25 -256 0
-133 -202 0
-133 -233 0
-133 -256 0
-202 -233 0
-202 -256 0
-233 -256 0
-293 -295 0
-31 -293 0
-92 -293 0
-24 -293 0
-109 -293 0
-191 -293 0
-238 -293 0
-42 -293 0
-31 -295 0
-92 -295 0
-24 -295 0
-109 -295 0
-191 -295 0
-238 -295 0
-42 -295 0
-31 -92 0
-24 -31 0
-31 -109 0
-31 -191 0
-31 -238 0
-31 -42 0
-24 -92 0
-92 -109 0
-92 -191 0
-92 -238 0
-42 -92 0
-24 -109 0
-24 -191 0
-24 -238 0
-24 -42 0
-109 -191 0
-109 -238 0
-42 -109 0
-191 -238 0
-42 -191 0
-42 -238 0
-53 -227 0
-183 -227 0
-84 -227 0
-56 -227 0
-36 -227 0
-207 -227 0
-227 -242 0
-17 -227 0
-53 -183 0
-53 -84 0
-53 -56 0
-36 -53 0
-53 -207 0
-53 -242 0
-17 -53 0
-84 -183 0
-56 -183 0
-36 -183 0
-183 -207 0
-183 -242 0
-17 -183 0
-56 -84 0
-36 -84 0
-84 -207 0
-84 -242 0
-17 -84 0
-36 -56 0
-56 -207 0
-56 -242 0
-17 -56 0
-36 -207 0
-36 -242 0
-17 -36 0
-207 -242 0
-17 -207 0
-17 -242 0
-119 -296 0
-30 -119 0
-78 -119 0
-113 -119 0
-119 -124 0
-119 -210 0
-119 -248 0
-16 -119 0
-30 -296 0
-78 -296 0
-113 -296 0
-124 -296 0
-210 -296 0
-248 -296 0
-16 -296 0
-30 -78 0
-30 -113 0
-30 -124 0
-30 -210 0
-30 -248 0
-16 -30 0
-78 -113 0
-78 -124 0
-78 -210 0
-78 -248 0
-16 -78 0
-113 -124 0
-113 -210 0
-113 -248 0
-16 -113 0
-124 -210 0
-124 -248 0
-16 -124 0
-210 -248 0
-16 -210 0
-16 -248 0
-147 -214 0
-146 -147 0
-147 -175 0
-146 -214 0
-175 -214 0
-146 -175 0
-66 -134 0
-15 -134 0
-134 -166 0
-15 -66 0
-66 -166 0
-15 -166 0
-14 -129 0
-129 -179 0
-129 -139 0
-14 -179 0
-14 -139 0
-139 -179 0
-51 -91 0
-35 -51 0
-51 -67 0
-35 -91 0
-67 -91 0
-35 -67 0
-13 -131 0
-13 -164 0
-13 -212 0
-131 -164 0
-131 -212 0
-164 -212 0
-228 -292 0
-229 -292 0
-135 -292 0
-228 -229 0
-135 -228 0
-135 -229 0
-134 -147 0
-129 -147 0
-51 -147 0
-129 -134 0
-51 -134 0
-51 -129 0
-66 -214 0
-14 -214 0
-91 -214 0
-14 -66 0
-66 -91 0
-14 -91 0
-15 -146 0
-13 -146 0
-146 -292 0
-13 -15 0
-15 -292 0
-13 -292 0
-166 -175 0
-131 -175 0
-175 -228 0
-131 -166 0
-166 -228 0
-131 -228 0
-35 -179 0
-164 -179 0
-179 -229 0
-35 -164 0
-35 -229 0
-164 -229 0
-67 -139 0
-139 -212 0
-135 -139 0
-67 -212 0
-67 -135 0
-135 -212 0
-205 -208 0
-12 -205 0
-94 -205 0
-160 -205 0
-112 -205 0
-12 -208 0
-94 -208 0
-160 -208 0
-112 -208 0
-12 -94 0
-12 -160 0
-12 -112 0
-94 -160 0
-94 -112 0
-112 -160 0
-239 -243 0
-59 -239 0
-11 -239 0
-151 -239 0
-239 -258 0
-59 -243 0
-11 -243 0
-151 -243 0
-243 -258 0
-11 -59 0
-59 -151 0
-59 -258 0
-11 -151 0
-11 -258 0
-151 -258 0
-45 -261 0
-9 -261 0
-8 -261 0
-185 -261 0
-7 -261 0
-9 -45 0
-8 -45 0
-45 -185 0
-7 -45 0
-8 -9 0
-9 -185 0
-7 -9 0
-8 -185 0
-7 -8 0
-7 -185 0
-6 -165 0
-89 -165 0
-83 -165 0
-123 -165 0
-6 -89 0
-6 -83 0
-6 -123 0
-83 -89 0
-89 -123 0
-83 -123 0
-101 -117 0
-5 -117 0
-55 -117 0
-117 -170 0
-5 -101 0
-55 -101 0
-101 -170 0
-5 -55 0
-5 -170 0
-55 -170 0
-148 -176 0
-148 -215 0
-176 -215 0
-205 -239 0
-205 -261 0
-165 -205 0
-117 -205 0
-239 -261 0
-165 -239 0
-117 -239 0
-165 -261 0
-117 -261 0
-117 -165 0
-208 -243 0
-45 -208 0
-6 -208 0
-101 -208 0
-45 -243 0
-6 -243 0
-101 -243 0
-6 -45 0
-45 -101 0
-6 -101 0
-12 -59 0
-9 -12 0
-9 -59 0
-11 -94 0
-8 -94 0
-89 -94 0
-5 -94 0
-94 -148 0
-8 -11 0
-11 -89 0
-5 -11 0
-11 -148 0
-8 -89 0
-5 -8 0
-8 -148 0
-5 -89 0
-89 -148 0
-5 -148 0
-151 -160 0
-160 -185 0
-83 -160 0
-55 -160 0
-160 -176 0
-151 -185 0
-83 -151 0
-55 -151 0
-151 -176 0
-83 -185 0
-55 -185 0
-176 -185 0
-55 -83 0
-83 -176 0
-55 -176 0
-112 -258 0
-7 -112 0
-112 -123 0
-112 -170 0
-112 -215 0
-7 -258 0
-123 -258 0
-170 -258 0
-215 -258 0
-7 -123 0
-7 -170 0
-7 -215 0
-123 -170 0
-123 -215 0
-170 -215 0
-4 -138 0
-150 -174 0
-150 -153 0
-81 -150 0
-153 -174 0
-81 -174 0
-81 -153 0
-82 -115 0
-82 -99 0
-34 -82 0
-99 -115 0
-34 -115 0
-34 -99 0
-3 -196 0
-2 -196 0
-196 -204 0
-196 -206 0
-196 -209 0
-2 -3 0
-3 -204 0
-3 -206 0
-3 -209 0
-2 -204 0
-2 -206 0
-2 -209 0
-204 -206 0
-204 -209 0
-206 -209 0
-161 -217 0
-95 -217 0
-111 -217 0
-217 -240 0
-217 -244 0
-95 -161 0
-111 -161 0
-161 -240 0
-161 -244 0
-95 -111 0
-95 -240 0
-95 -244 0
-111 -240 0
-111 -244 0
-240 -244 0
-1 -250 0
-10 -250 0
-250 -259 0
-250 -262 0
-44 -250 0
-1 -10 0
-1 -259 0
-1 -262 0
-1 -44 0
-10 -259 0
-10 -262 0
-10 -44 0
-259 -262 0
-44 -259 0
-44 -262 0
-4 -196 0
-4 -217 0
-4 -250 0
-196 -217 0
-196 -250 0
-217 -250 0
-3 -138 0
-138 -161 0
-1 -138 0
-3 -161 0
-1 -3 0
-1 -161 0
-82 -150 0
-2 -150 0
-95 -150 0
-10 -150 0
-2 -82 0
-82 -95 0
-10 -82 0
-2 -95 0
-2 -10 0
-10 -95 0
-115 -174 0
-174 -204 0
-111 -174 0
-174 -259 0
-115 -204 0
-111 -115 0
-115 -259 0
-111 -204 0
-204 -259 0
-111 -259 0
-99 -153 0
-153 -206 0
-153 -240 0
-153 -262 0
-99 -206 0
-99 -240 0
-99 -262 0
-206 -240 0
-206 -262 0
-240 -262 0
-34 -81 0
-81 -209 0
-81 -244 0
-44 -81 0
-34 -209 0
-34 -244 0
-34 -44 0
-209 -244 0
-44 -209 0
-44 -244 0
-120 -263 0
-156 -263 0
-87 -263 0
-120 -156 0
-87 -120 0
-87 -156 0
-114 -270 0
-234 -270 0
-126 -270 0
-143 -270 0
-168 -270 0
-114 -234 0
-114 -126 0
-114 -143 0
-114 -168 0
-126 -234 0
-143 -234 0
-168 -234 0
-126 -143 0
-126 -168 0
-143 -168 0
-108 -283 0
-163 -291 0
-211 -291 0
-104 -291 0
-230 -291 0
-136 -291 0
-50 -291 0
-177 -291 0
-181 -291 0
-163 -211 0
-104 -163 0
-163 -230 0
-136 -163 0
-50 -163 0
-163 -177 0
-163 -181 0
-104 -211 0
-211 -230 0
-136 -211 0
-50 -211 0
-177 -211 0
-181 -211 0
-104 -230 0
-104 -136 0
-50 -104 0
-104 -177 0
-104 -181 0
-136 -230 0
-50 -230 0
-177 -230 0
-181 -230 0
-50 -136 0
-136 -177 0
-136 -181 0
-50 -177 0
-50 -181 0
-177 -181 0
-147 -214 0
-134 -147 0
-66 -147 0
-134 -214 0
-66 -214 0
-66 -134 0
-205 -208 0
-205 -239 0
-205 -243 0
-205 -261 0
-45 -205 0
-208 -239 0
-208 -243 0
-208 -261 0
-45 -208 0
-239 -243 0
-239 -261 0
-45 -239 0
-243 -261 0
-45 -243 0
-45 -261 0
-4 -138 0
-127 -268 0
-98 -158 0
-90 -98 0
-98 -237 0
-98 -171 0
-98 -169 0
-98 -132 0
-98 -273 0
-98 -275 0
-90 -158 0
-158 -237 0
-158 -171 0
-158 -169 0
-132 -158 0
-158 -273 0
-158 -275 0
-90 -237 0
-90 -171 0
-90 -169 0
-90 -132 0
-90 -273 0
-90 -275 0
-171 -237 0
-169 -237 0
-132 -237 0
-237 -273 0
-237 -275 0
-169 -171 0
-132 -171 0
-171 -273 0
-171 -275 0
-132 -169 0
-169 -273 0
-169 -275 0
-132 -273 0
-132 -275 0
-273 -275 0
-154 -162 0
-154 -213 0
-154 -294 0
-128 -154 0
-61 -154 0
-140 -154 0
-33 -154 0
-32 -154 0
-162 -213 0
-162 -294 0
-128 -162 0
-61 -162 0
-140 -162 0
-33 -162 0
-32 -162 0
-213 -294 0
-128 -213 0
-61 -213 0
-140 -213 0
-33 -213 0
-32 -213 0
-128 -294 0
-61 -294 0
-140 -294 0
-33 -294 0
-32 -294 0
-61 -128 0
-128 -140 0
-33 -128 0
-32 -128 0
-61 -140 0
-33 -61 0
-32 -61 0
-33 -140 0
-32 -140 0
-32 -33 0
-146 -175 0
-15 -146 0
-146 -166 0
-15 -175 0
-166 -175 0
-15 -166 0
-12 -59 0
-9 -12 0
-9 -59 0
-74 -79 0
-79 -125 0
-79 -195 0
-74 -125 0
-74 -195 0
-125 -195 0
-102 -118 0
-102 -144 0
-102 -272 0
-102 -276 0
-102 -277 0
-118 -144 0
-118 -272 0
-118 -276 0
-118 -277 0
-144 -272 0
-144 -276 0
-144 -277 0
-272 -276 0
-272 -277 0
-276 -277 0
-227 -293 0
-119 -293 0
-293 -295 0
-53 -293 0
-293 -296 0
-31 -293 0
-183 -293 0
-30 -293 0
-119 -227 0
-227 -295 0
-53 -227 0
-227 -296 0
-31 -227 0
-183 -227 0
-30 -227 0
-119 -295 0
-53 -119 0
-119 -296 0
-31 -119 0
-119 -183 0
-30 -119 0
-53 -295 0
-295 -296 0
-31 -295 0
-183 -295 0
-30 -295 0
-53 -296 0
-31 -53 0
-53 -183 0
-30 -53 0
-31 -296 0
-183 -296 0
-30 -296 0
-31 -183 0
-30 -31 0
-30 -183 0
-94 -160 0
-94 -112 0
-11 -94 0
-94 -151 0
-94 -258 0
-8 -94 0
-94 -185 0
-7 -94 0
-112 -160 0
-11 -160 0
-151 -160 0
-160 -258 0
-8 -160 0
-160 -185 0
-7 -160 0
-11 -112 0
-112 -151 0
-112 -258 0
-8 -112 0
-112 -185 0
-7 -112 0
-11 -151 0
-11 -258 0
-8 -11 0
-11 -185 0
-7 -11 0
-151 -258 0
-8 -151 0
-151 -185 0
-7 -151 0
-8 -258 0
-185 -258 0
-7 -258 0
-8 -185 0
-7 -8 0
-7 -185 0
-187 -265 0
-149 -187 0
-173 -187 0
-149 -265 0
-173 -265 0
-149 -173 0
-77 -105 0
-52 -77 0
-49 -77 0
-52 -105 0
-49 -105 0
-49 -52 0
-285 -286 0
-110 -285 0
-223 -285 0
-141 -285 0
-47 -285 0
-110 -286 0
-223 -286 0
-141 -286 0
-47 -286 0
-110 -223 0
-110 -141 0
-47 -110 0
-141 -223 0
-47 -223 0
-47 -141 0
-29 -188 0
-28 -188 0
-72 -188 0
-106 -188 0
-26 -188 0
-96 -188 0
-155 -188 0
-46 -188 0
-28 -29 0
-29 -72 0
-29 -106 0
-26 -29 0
-29 -96 0
-29 -155 0
-29 -46 0
-28 -72 0
-28 -106 0
-26 -28 0
-28 -96 0
-28 -155 0
-28 -46 0
-72 -106 0
-26 -72 0
-72 -96 0
-72 -155 0
-46 -72 0
-26 -106 0
-96 -106 0
-106 -155 0
-46 -106 0
-26 -96 0
-26 -155 0
-26 -46 0
-96 -155 0
-46 -96 0
-46 -155 0
-14 -129 0
-51 -129 0
-91 -129 0
-14 -51 0
-14 -91 0
-51 -91 0
-6 -165 0
-117 -165 0
-101 -165 0
-6 -117 0
-6 -101 0
-101 -117 0
-190 -203 0
-203 -257 0
-41 -203 0
-190 -257 0
-41 -190 0
-41 -257 0
-65 -71 0
-71 -278 0
-71 -178 0
-71 -279 0
-71 -76 0
-65 -278 0
-65 -178 0
-65 -279 0
-65 -76 0
-178 -278 0
-278 -279 0
-76 -278 0
-178 -279 0
-76 -178 0
-76 -279 0
-64 -70 0
-43 -70 0
-70 -260 0
-43 -64 0
-64 -260 0
-43 -260 0
-63 -287 0
-287 -288 0
-63 -288 0
-27 -121 0
-121 -192 0
-68 -121 0
-62 -121 0
-25 -121 0
-86 -121 0
-23 -121 0
-121 -133 0
-27 -192 0
-27 -68 0
-27 -62 0
-25 -27 0
-27 -86 0
-23 -27 0
-27 -133 0
-68 -192 0
-62 -192 0
-25 -192 0
-86 -192 0
-23 -192 0
-133 -192 0
-62 -68 0
-25 -68 0
-68 -86 0
-23 -68 0
-68 -133 0
-25 -62 0
-62 -86 0
-23 -62 0
-62 -133 0
-25 -86 0
-23 -25 0
-25 -133 0
-23 -86 0
-86 -133 0
-23 -133 0
-150 -174 0
-82 -150 0
-115 -150 0
-82 -174 0
-115 -174 0
-82 -115 0
-60 -93 0
-137 -167 0
-40 -167 0
-167 -182 0
-40 -137 0
-137 -182 0
-40 -182 0
-58 -245 0
-39 -245 0
-38 -245 0
-39 -58 0
-38 -58 0
-38 -39 0
-80 -88 0
-57 -88 0
-54 -88 0
-37 -88 0
-69 -88 0
-57 -80 0
-54 -80 0
-37 -80 0
-69 -80 0
-54 -57 0
-37 -57 0
-57 -69 0
-37 -54 0
-54 -69 0
-37 -69 0
-84 -92 0
-78 -92 0
-24 -92 0
-56 -92 0
-92 -113 0
-92 -109 0
-36 -92 0
-92 -124 0
-78 -84 0
-24 -84 0
-56 -84 0
-84 -113 0
-84 -109 0
-36 -84 0
-84 -124 0
-24 -78 0
-56 -78 0
-78 -113 0
-78 -109 0
-36 -78 0
-78 -124 0
-24 -56 0
-24 -113 0
-24 -109 0
-24 -36 0
-24 -124 0
-56 -113 0
-56 -109 0
-36 -56 0
-56 -124 0
-109 -113 0
-36 -113 0
-113 -124 0
-36 -109 0
-109 -124 0
-36 -124 0
-139 -179 0
-35 -179 0
-67 -179 0
-35 -139 0
-67 -139 0
-35 -67 0
-83 -89 0
-89 -123 0
-5 -89 0
-55 -89 0
-89 -170 0
-83 -123 0
-5 -83 0
-55 -83 0
-83 -170 0
-5 -123 0
-55 -123 0
-123 -170 0
-5 -55 0
-5 -170 0
-55 -170 0
-81 -153 0
-99 -153 0
-34 -153 0
-81 -99 0
-34 -81 0
-34 -99 0
-184 -189 0
-85 -184 0
-75 -184 0
-85 -189 0
-75 -189 0
-75 -85 0
-130 -193 0
-180 -193 0
-193 -281 0
-130 -180 0
-130 -281 0
-180 -281 0
-186 -284 0
-97 -186 0
-157 -186 0
-186 -236 0
-172 -186 0
-97 -284 0
-157 -284 0
-236 -284 0
-172 -284 0
-97 -157 0
-97 -236 0
-97 -172 0
-157 -236 0
-157 -172 0
-172 -236 0
-218 -289 0
-218 -290 0
-218 -251 0
-289 -290 0
-251 -289 0
-251 -290 0
-22 -194 0
-194 -197 0
-194 -216 0
-194 -219 0
-20 -194 0
-194 -249 0
-19 -194 0
-194 -252 0
-22 -197 0
-22 -216 0
-22 -219 0
-20 -22 0
-22 -249 0
-19 -22 0
-22 -252 0
-197 -216 0
-197 -219 0
-20 -197 0
-197 -249 0
-19 -197 0
-197 -252 0
-216 -219 0
-20 -216 0
-216 -249 0
-19 -216 0
-216 -252 0
-20 -219 0
-219 -249 0
-19 -219 0
-219 -252 0
-20 -249 0
-19 -20 0
-20 -252 0
-19 -249 0
-249 -252 0
-19 -252 0
-3 -196 0
-196 -217 0
-161 -196 0
-196 -250 0
-1 -196 0
-3 -217 0
-3 -161 0
-3 -250 0
-1 -3 0
-161 -217 0
-217 -250 0
-1 -217 0
-161 -250 0
-1 -161 0
-1 -250 0
-222 -231 0
-48 -222 0
-222 -255 0
-48 -231 0
-231 -255 0
-48 -255 0
-122 -264 0
-107 -264 0
-73 -264 0
-107 -122 0
-73 -122 0
-73 -107 0
-198 -280 0
-201 -280 0
-220 -280 0
-224 -280 0
-232 -280 0
-198 -201 0
-198 -220 0
-198 -224 0
-198 -232 0
-201 -220 0
-201 -224 0
-201 -232 0
-220 -224 0
-220 -232 0
-224 -232 0
-199 -271 0
-103 -271 0
-225 -271 0
-145 -271 0
-253 -271 0
-103 -199 0
-199 -225 0
-145 -199 0
-199 -253 0
-103 -225 0
-103 -145 0
-103 -253 0
-145 -225 0
-225 -253 0
-145 -253 0
-21 -200 0
-21 -202 0
-21 -221 0
-21 -226 0
-21 -233 0
-18 -21 0
-21 -254 0
-21 -256 0
-200 -202 0
-200 -221 0
-200 -226 0
-200 -233 0
-18 -200 0
-200 -254 0
-200 -256 0
-202 -221 0
-202 -226 0
-202 -233 0
-18 -202 0
-202 -254 0
-202 -256 0
-221 -226 0
-221 -233 0
-18 -221 0
-221 -254 0
-221 -256 0
-226 -233 0
-18 -226 0
-226 -254 0
-226 -256 0
-18 -233 0
-233 -254 0
-233 -256 0
-18 -254 0
-18 -256 0
-254 -256 0
-13 -131 0
-13 -292 0
-13 -228 0
-131 -292 0
-131 -228 0
-228 -292 0
-2 -204 0
-2 -95 0
-2 -111 0
-2 -10 0
-2 -259 0
-95 -204 0
-111 -204 0
-10 -204 0
-204 -259 0
-95 -111 0
-10 -95 0
-95 -259 0
-10 -111 0
-111 -259 0
-10 -259 0
-241 -246 0
-241 -266 0
-241 -267 0
-246 -266 0
-246 -267 0
-266 -267 0
-159 -269 0
-235 -269 0
-152 -269 0
-142 -269 0
-269 -274 0
-159 -235 0
-152 -159 0
-142 -159 0
-159 -274 0
-152 -235 0
-142 -235 0
-235 -274 0
-142 -152 0
-152 -274 0
-142 -274 0
-247 -282 0
-116 -282 0
-100 -282 0
-116 -247 0
-100 -247 0
-100 -116 0
-191 -207 0
-191 -210 0
-191 -238 0
-191 -242 0
-191 -248 0
-42 -191 0
-17 -191 0
-16 -191 0
-207 -210 0
-207 -238 0
-207 -242 0
-207 -248 0
-42 -207 0
-17 -207 0
-16 -207 0
-210 -238 0
-210 -242 0
-210 -248 0
-42 -210 0
-17 -210 0
-16 -210 0
-238 -242 0
-238 -248 0
-42 -238 0
-17 -238 0
-16 -238 0
-242 -248 0
-42 -242 0
-17 -242 0
-16 -242 0
-42 -248 0
-17 -248 0
-16 -248 0
-17 -42 0
-16 -42 0
-16 -17 0
-164 -212 0
-164 -229 0
-135 -164 0
-212 -229 0
-135 -212 0
-135 -229 0
-148 -176 0
-148 -215 0
-176 -215 0
-206 -209 0
-206 -240 0
-206 -244 0
-206 -262 0
-44 -206 0
-209 -240 0
-209 -244 0
-209 -262 0
-44 -209 0
-240 -244 0
-240 -262 0
-44 -240 0
-244 -262 0
-44 -244 0
-44 -262 0
